p cnf 142 278
-35 19 20 -14 0
-14 -11 -35 27 0
5 8 41 42 0
5 8 41 -42 0
5 8 -41 43 0
5 8 -41 -43 0
-4 18 7 -23 0
9 37 24 28 0
38 6 44 45 0
38 6 44 -45 0
38 6 -44 46 0
38 6 -44 -46 0
-27 -7 -4 -11 0
-19 -20 38 -6 0
2 -10 17 34 0
-5 -33 -8 -15 0
34 6 2 -38 0
-39 -29 -1 -13 0
35 -31 14 30 0
-34 -20 -2 -19 0
-11 27 -30 31 0
-36 -33 15 -12 0
-23 17 18 -10 0
-16 47 48 50 0
-16 47 48 -50 0
-16 47 -48 51 0
-16 47 -48 -51 0
-16 -47 49 52 0
-16 -47 49 -52 0
-16 -47 -49 53 0
-16 -47 -49 -53 0
-23 -4 -7 -18 0
-25 54 55 57 0
-25 54 55 -57 0
-25 54 -55 58 0
-25 54 -55 -58 0
-25 -54 56 59 0
-25 -54 56 -59 0
-25 -54 -56 60 0
-25 -54 -56 -60 0
38 10 -6 -17 0
-5 40 8 22 0
-23 -10 -18 -17 0
-13 -25 -26 -39 0
35 -27 14 11 0
10 -17 -7 4 0
23 -18 -27 11 0
-40 36 -22 12 0
24 -8 37 5 0
39 36 12 -13 0
23 -18 8 -5 0
17 10 61 62 0
17 10 61 -62 0
17 10 -61 63 0
17 10 -61 -63 0
-1 -33 -15 -29 0
-21 32 -3 16 0
-33 -38 -15 -6 0
-36 -28 -9 -12 0
32 -16 21 -3 0
6 -10 17 -38 0
-23 27 -11 18 0
38 -6 15 -33 0
-23 -18 -27 -11 0
33 -15 -22 -40 0
-17 -7 -4 -10 0
-17 23 10 -18 0
-27 -11 35 -14 0
37 35 -24 -14 0
-4 27 -11 7 0
11 30 -31 -27 0
-29 -30 1 31 0
-23 -26 25 18 0
-27 11 16 -32 0
14 35 -19 -20 0
-19 -28 -20 -9 0
-35 14 64 65 0
-35 14 64 -65 0
-35 14 -64 66 0
-35 14 -64 -66 0
-39 13 14 35 0
-37 -24 -28 -9 0
26 25 67 68 0
26 25 67 -68 0
26 25 -67 69 0
26 25 -67 -69 0
32 -27 16 -11 0
-40 -3 21 -22 0
24 -14 37 -35 0
36 12 -15 33 0
-30 -1 -31 -29 0
-36 -26 -25 12 0
-8 -3 -5 -21 0
16 -30 32 -31 0
-13 34 -2 -39 0
-19 20 70 71 0
-19 20 70 -71 0
-19 20 -70 72 0
-19 20 -70 -72 0
27 11 73 74 0
27 11 73 -74 0
27 11 -73 75 0
27 11 -73 -75 0
-13 -14 39 -35 0
-17 -38 -6 -10 0
14 -24 35 -37 0
-22 40 76 77 0
-22 40 76 -77 0
-22 40 -76 78 0
-22 40 -76 -78 0
5 -3 -8 21 0
22 -33 -15 -40 0
-33 22 15 40 0
26 -36 -25 -12 0
13 39 79 80 0
13 39 79 -80 0
13 39 -79 81 0
13 39 -79 -81 0
-14 -30 35 -31 0
13 -34 -39 -2 0
-2 -10 34 -17 0
-24 -40 37 22 0
-10 -17 -1 -29 0
-8 -5 -40 22 0
-32 -31 16 30 0
-24 37 -8 -5 0
-23 -5 -8 -18 0
18 23 82 83 0
18 23 82 -83 0
18 23 -82 84 0
18 23 -82 -84 0
28 -9 -25 -26 0
36 -12 85 86 0
36 -12 85 -86 0
36 -12 -85 87 0
36 -12 -85 -87 0
4 7 88 89 0
4 7 88 -89 0
4 7 -88 90 0
4 7 -88 -90 0
-6 -20 19 -38 0
-4 -10 17 7 0
6 19 20 -38 0
32 -16 -26 25 0
32 91 92 94 0
32 91 92 -94 0
32 91 -92 95 0
32 91 -92 -95 0
32 -91 93 96 0
32 -91 93 -96 0
32 -91 -93 97 0
32 -91 -93 -97 0
-31 -24 -37 30 0
6 -3 -38 21 0
40 22 -24 -37 0
-39 29 13 -1 0
26 98 99 101 0
26 98 99 -101 0
26 98 -99 102 0
26 98 -99 -102 0
26 -98 100 103 0
26 -98 100 -103 0
26 -98 -100 104 0
26 -98 -100 -104 0
28 -24 37 -9 0
19 -14 -20 35 0
-20 19 28 -9 0
-7 19 -20 -4 0
29 1 105 106 0
29 1 105 -106 0
29 1 -105 107 0
29 1 -105 -107 0
-30 -31 37 -24 0
1 -29 -10 17 0
-22 24 37 -40 0
-18 23 26 -25 0
-9 -28 -25 26 0
16 -21 3 -32 0
33 5 -8 -15 0
30 31 108 109 0
30 31 108 -109 0
30 31 -108 110 0
30 31 -108 -110 0
-36 12 -33 -15 0
19 28 20 9 0
26 -25 -39 13 0
-1 -17 29 10 0
-6 -2 -38 34 0
-27 -30 -11 -31 0
-16 -32 111 112 0
-16 -32 111 -112 0
-16 -32 -111 113 0
-16 -32 -111 -113 0
-37 24 114 115 0
-37 24 114 -115 0
-37 24 -114 116 0
-37 24 -114 -116 0
21 3 117 118 0
21 3 117 -118 0
21 3 -117 119 0
21 3 -117 -119 0
-38 -15 33 6 0
-4 1 -29 7 0
-35 -14 -30 31 0
-30 -16 31 32 0
-3 22 -21 -40 0
22 40 3 -21 0
-3 34 21 2 0
28 36 12 9 0
38 3 -21 -6 0
4 11 -27 -7 0
-7 -1 29 4 0
-32 -9 16 -28 0
-32 -25 26 16 0
4 23 -18 -7 0
-1 -29 -4 -7 0
20 19 2 34 0
-39 -36 -12 13 0
-36 22 -40 12 0
12 25 36 -26 0
-5 8 -33 15 0
1 -29 33 -15 0
-34 2 120 121 0
-34 2 120 -121 0
-34 2 -120 122 0
-34 2 -120 -122 0
5 -40 -8 -22 0
-2 -34 -6 38 0
-13 39 -26 25 0
-24 8 -5 -37 0
-16 -11 27 32 0
28 -16 9 32 0
33 15 123 124 0
33 15 123 -124 0
33 15 -123 125 0
33 15 -123 -125 0
-9 28 16 32 0
39 -29 1 -13 0
-6 -21 -3 -38 0
-13 34 39 2 0
-25 -26 -23 -18 0
-4 19 20 7 0
10 -17 -34 -2 0
24 31 -30 37 0
34 -2 -20 19 0
-23 -8 18 5 0
9 28 -26 25 0
16 -25 -26 32 0
-34 -2 -21 3 0
-2 -21 -3 34 0
-31 29 -1 30 0
-13 -39 -36 12 0
-13 -14 35 -39 0
-7 -20 -19 4 0
-36 40 22 -12 0
9 -28 126 127 0
9 -28 126 -127 0
9 -28 -126 128 0
9 -28 -126 -128 0
9 129 130 132 0
9 129 130 -132 0
9 129 -130 133 0
9 129 -130 -133 0
9 -129 131 134 0
9 -129 131 -134 0
9 -129 -131 135 0
9 -129 -131 -135 0
12 -36 28 -9 0
-5 8 3 -21 0
-33 29 -1 15 0
-28 136 137 139 0
-28 136 137 -139 0
-28 136 -137 140 0
-28 136 -137 -140 0
-28 -136 138 141 0
-28 -136 138 -141 0
-28 -136 -138 142 0
-28 -136 -138 -142 0

